minizinc/sudoku_problems2/sudoku_p88.dzn
%
% sudoku_p88.dzn
% See http://www.hakank.org/minizinc/sudoku_gcc.mzn
% 
% This problem is problem 88 from
% Gecode's sudoku.cpp
% http://www.gecode.org/gecode-doc-latest/sudoku_8cpp-source.html
% 
x = array2d(1..n, 1..n, [   
% http://janko.at/Raetsel/Sudoku/600.a.htm
% 88
  _,  _,  _,  _,  4,  7,  _,  _,  _,  _,  _,  9, 11,  _,  1,  _,
  _,  _,  5,  _,  _,  9, 15,  2,  _,  6,  _,  _,  _,  _,  4,  3,
 11,  _,  _,  3,  _,  _,  _,  _,  _, 14,  2,  4,  _,  _,  9,  _,
  _,  _,  9,  _,  _,  _,  _,  _, 10,  5,  7,  _,  _,  2,  _,  _,
  _, 13, 10,  4, 14,  _,  _,  7,  _,  _,  _, 12,  _, 15,  _,  _,
  _,  1,  _,  6,  _,  _,  4,  _, 14,  _,  _,  _,  _,  8,  _, 11,
  _,  _,  _,  _,  8,  1, 11, 15,  _,  _,  4,  _,  5,  _,  _,  7,
  _,  _,  _, 15,  9, 10,  _,  _,  _,  _, 13,  _,  _, 14,  _,  4,
  5,  _,  2,  _,  _,  3,  _,  _,  _,  _, 10,  7,  1,  _,  _,  _,
  6,  _,  _, 12,  _, 11,  _,  _, 16,  9, 15, 14,  _,  _,  _,  _,
  7,  _,  8,  _,  _,  _,  _,  9,  _, 13,  _,  _, 12,  _,  3,  _,
  _,  _, 16,  _,  6,  _,  _,  _,  1,  _,  _,  3, 14,  4,  5,  _,
  _,  _, 15,  _,  _, 14,  8, 13,  _,  _,  _,  _,  _, 10,  _,  _,
  _,  2,  _,  _,  7,  4,  1,  _,  _,  _,  _,  _,  3,  _,  _,  8,
 13,  6,  _,  _,  _,  _,  5,  _,  9,  2, 11,  _,  _,  1,  _,  _,
  _, 10,  _, 14, 11,  _,  _,  _,  _,  _, 12,  6,  _,  _,  _,  _
]);

n = 16;


